10J3M/DAT/10J3MNNL-18.dat
10 3
21.9466 21.9466
24.5129 24.5129
20.8081 20.8081
31.2906 31.2906
24.2465 24.2465
18.6695 18.6695
11.6208 11.6208
31.3461 31.3461
26.0271 26.0271
20.2448 20.2448
230.713