10J3M/SOL/10J3MNNL-18.sol
solution status: optimal solution found
objective value:                               84.476
x#1#2                                               1 	(obj:0)
x#2#2                                               1 	(obj:0)
x#3#3                                               1 	(obj:0)
x#4#1                                               1 	(obj:0)
x#5#1                                               1 	(obj:0)
x#6#3                                               1 	(obj:0)
x#7#1                                               1 	(obj:0)
x#8#2                              0.0567652369534972 	(obj:0)
x#8#3                               0.943234763046503 	(obj:0)
x#9#1                              0.0180591068764571 	(obj:0)
x#9#2                               0.981940893123543 	(obj:0)
x#10#1                                              1 	(obj:0)
z                                              84.476 	(obj:1)
